c description: Perfect Matching Principle on 
c generator: CNFgen (0.9.0)
c copyright: (C) 2012-2020 Massimo Lauria <massimo.lauria@uniroma1.it>
c url: https://massimolauria.net/cnfgen
c
p cnf 40 131
1 0
-2 -3 0
-2 -4 0
-3 -4 0
2 3 4 0
0
0
-5 -6 0
-5 -7 0
-5 -8 0
-6 -7 0
-6 -8 0
-7 -8 0
5 6 7 8 0
0
-1 -9 0
-1 -10 0
-9 -10 0
1 9 10 0
11 0
-12 -13 0
12 13 0
-12 -14 0
-12 -15 0
-14 -15 0
12 14 15 0
-16 -17 0
16 17 0
-5 -18 0
-5 -19 0
-5 -20 0
-5 -21 0
-5 -22 0
-5 -23 0
-18 -19 0
-18 -20 0
-18 -21 0
-18 -22 0
-18 -23 0
-19 -20 0
-19 -21 0
-19 -22 0
-19 -23 0
-20 -21 0
-20 -22 0
-20 -23 0
-21 -22 0
-21 -23 0
-22 -23 0
5 18 19 20 21 22 23 0
-2 -18 0
-2 -24 0
-18 -24 0
2 18 24 0
-3 -16 0
-3 -25 0
-3 -26 0
-16 -25 0
-16 -26 0
-25 -26 0
3 16 25 26 0
-27 -28 0
27 28 0
-14 -27 0
-14 -29 0
-14 -30 0
-27 -29 0
-27 -30 0
-29 -30 0
14 27 29 30 0
13 0
31 0
-32 -33 0
32 33 0
19 0
-20 -34 0
20 34 0
6 0
-25 -34 0
-25 -35 0
-25 -36 0
-34 -35 0
-34 -36 0
-35 -36 0
25 34 35 36 0
-4 -21 0
-4 -37 0
-21 -37 0
4 21 37 0
22 0
15 0
-35 -37 0
-35 -38 0
-37 -38 0
35 37 38 0
36 0
0
-7 -28 0
-7 -39 0
-28 -39 0
7 28 39 0
0
-9 -40 0
9 40 0
0
32 0
24 0
-26 -38 0
-26 -39 0
-38 -39 0
26 38 39 0
-8 -17 0
-8 -29 0
-8 -31 0
-8 -33 0
-17 -29 0
-17 -31 0
-17 -33 0
-29 -31 0
-29 -33 0
-31 -33 0
8 17 29 31 33 0
11 0
0
-10 -23 0
-10 -30 0
-10 -40 0
-23 -30 0
-23 -40 0
-30 -40 0
10 23 30 40 0